File : Instances/p56
Used 67s
23448

1 1 0 0 1 0 1 1 1 0 1 0 1 0 1 1 1 0 0 0 1 1 0 0 0 1 0 1 1 0 
7 6 21 27 15 12 15 28 27 28 4 28 20 1 28 7 1 20 16 0 27 16 1 0 10 27 27 14 4 15 6 4 4 16 0 6 20 8 16 15 7 8 6 4 8 6 8 21 14 14 0 16 21 16 8 6 25 8 7 25 4 0 7 8 20 25 10 14 6 25 7 12 6 8 10 1 20 10 8 16 10 0 8 25 4 10 6 21 27 7 28 6 25 25 0 1 28 12 0 28 28 15 25 7 4 0 4 16 16 1 14 4 27 12 12 8 28 7 14 8 14 25 28 6 14 16 21 12 14 0 28 21 25 20 1 20 1 8 28 10 12 27 12 25 25 10 16 15 27 25 16 0 10 0 8 28 21 15 8 1 1 27 10 16 10 27 1 4 1 21 1 20 28 14 14 21 27 20 4 10 0 15 21 6 12 8 28 10 0 21 21 21 6 4 7 12 7 15 20 6 
